Version identifier: 12.10.0.0 | 2019-11-26 | 843d4de
CPXPARAM_WorkMem                                 28672
Tried aggregator 2 times.
Aggregator did 50 substitutions.
Reduced MIP has 163 rows, 180 columns, and 771 nonzeros.
Reduced MIP has 180 binaries, 0 generals, 0 SOSs, and 0 indicators.
Presolve time = 0,00 sec. (0,76 ticks)
Found incumbent of value 150,000000 after 0,00 sec. (1,24 ticks)
Probing time = 0,00 sec. (0,37 ticks)
Tried aggregator 1 time.
Detecting symmetries...
MIP Presolve eliminated 21 rows and 0 columns.
MIP Presolve added 42 rows and 0 columns.
Reduced MIP has 184 rows, 180 columns, and 792 nonzeros.
Reduced MIP has 180 binaries, 0 generals, 0 SOSs, and 0 indicators.
Presolve time = 0,00 sec. (0,92 ticks)
Probing time = 0,00 sec. (0,36 ticks)
Clique table members: 571.
MIP emphasis: balance optimality and feasibility.
MIP search method: dynamic search.
Parallel mode: deterministic, using up to 16 threads.
Root relaxation solution time = 0,00 sec. (0,47 ticks)

        Nodes                                         Cuts/
   Node  Left     Objective  IInf  Best Integer    Best Bound    ItCnt     Gap

*     0+    0                          150,0000        0,0000           100,00%
*     0+    0                           97,0000        0,0000           100,00%
      0     0       50,0000   168       97,0000       50,0000       45   48,45%
      0     0       50,0000   168       97,0000     Cuts: 147       98   48,45%
      0     0       51,2089   168       97,0000     Cuts: 146      118   47,21%
      0     0       51,3951   168       97,0000     Cuts: 146      139   47,02%
      0     0       51,4750   168       97,0000      Cuts: 12      154   46,93%
*     0+    0                           94,0000       51,4750            45,24%
      0     0       51,6466   168       94,0000     Cuts: 137      180   45,06%
Detecting symmetries...
      0     0       51,6493   168       94,0000     Cuts: 129      184   45,05%
*     0+    0                           89,0000       51,6493            41,97%
Detecting symmetries...
      0     2       51,6493   180       89,0000       87,4333      184    1,76%
Elapsed time = 0,12 sec. (43,26 ticks, tree = 0,02 MB, solutions = 4)

Clique cuts applied:  31
Cover cuts applied:  106
Implied bound cuts applied:  6
Flow cuts applied:  7
Mixed integer rounding cuts applied:  68
Zero-half cuts applied:  8
Lift and project cuts applied:  1
Gomory fractional cuts applied:  8

Root node processing (before b&c):
  Real time             =    0,11 sec. (43,06 ticks)
Parallel b&c, 16 threads:
  Real time             =    0,05 sec. (28,54 ticks)
  Sync time (average)   =    0,03 sec.
  Wait time (average)   =    0,00 sec.
                          ------------
Total (root+branch&cut) =    0,16 sec. (71,60 ticks)
